c turning on binary mode checking
c parsing input formula with 259840 variables and 1039934 clauses
c finished parsing, read 3366329 bytes from proof file
c detected empty clause; start verification via backward checking
c 1312 of 1039934 clauses in core                            
c 287 of 136717 lemmas in core using 6874 resolution steps
c 0 RAT lemmas in core; 11 redundant literals in core lemmas
s VERIFIED
c verification time: 1.471 seconds
